(declare-fun ExpandObjSwitcher () Real)
(declare-fun Constructed_Argument_t () String)
(assert (= ExpandObjSwitcher 0.0))
(assert (not (= Constructed_Argument_t "string")))
(assert (= Constructed_Argument_t "number"))
(check-sat)
